\ This file was automatically generated by Zimpl
\ set v := {1, 2, 3, 4};
\ set a := {1, 2, 3, 4};
\ set va := v * a;
\ param M[v] := <1> 0.00008, <2> 0.00007, <3> 0.0001, <4> 0.00006;
\ param P[va] :=                  <1,1> 0.00001,  <1,2>  0.000005,  <1,3> 0.000009, <1,4> 0.00001,                  <2,1> 0.000
\ 008, <2,2>  0.000007,  <2,3> 0.000006, <2,4> 0.000006,                  <3,1> 0.000015, <3,2>  0.000003,  <3,3> 0.000004, <3,
\ 4> 0.000007,                  <4,1> 0.00002,  <4,2>  0.000002,  <4,3> 0.000003, <4,4> 0.000009;
\ param C[a] := <1> 1.20, <2> 1, <3> 2.5, <4> 8;
\ var Xa[a] >= 1;
\ minimize custo :       sum <ax> in a:         C[ax] * Xa[ax];
\ subto c1 :         forall <vx> in v :                 sum <vx, ax> in va : P[vx, ax] * Xa[ax] >= M[vx];
\ subto c2:         forall <ax> in a : Xa[ax] >= 1;
\Problem name: file
Minimize
 custo:  +1.2 Xa#1 + Xa#2 +2.5 Xa#3 +8 Xa#4
Subject to
 c1_1:
  +1e-005 Xa#4 +9e-006 Xa#3 +5e-006 Xa#2 +1e-005 Xa#1 >= 8e-005
 c1_2:
  +6e-006 Xa#4 +6e-006 Xa#3 +7e-006 Xa#2 +8e-006 Xa#1 >= 7e-005
 c1_3:
  +7e-006 Xa#4 +4e-006 Xa#3 +3e-006 Xa#2 +1.5e-005 Xa#1 >= 0.0001
 c1_4:
  +9e-006 Xa#4 +3e-006 Xa#3 +2e-006 Xa#2 +2e-005 Xa#1 >= 6e-005
 c2_1:
  + Xa#1 >= 1
 c2_2:
  + Xa#2 >= 1
 c2_3:
  + Xa#3 >= 1
 c2_4:
  + Xa#4 >= 1
Bounds
 1 <= Xa#1 <= +inf
 1 <= Xa#2 <= +inf
 1 <= Xa#3 <= +inf
 1 <= Xa#4 <= +inf
End
